# Objective value = 2.9992134221400255e+02
x[0] 0.999999980689945
x[1] 0
x[2] 0.999999949458568
x[3] 1
x[4] 1
x[5] 0
x[6] 1
x[7] 9.9999998714059957e-01
x[8] 9.9999999025791619e-01
x[9] 1
x[10] 0
x[11] 0
x[12] 4.8780942082474162e-08
x[13] 1
x[14] 1
x[15] 7.3142834917421744e-08
x[16] 6.9996085500904147e-08
x[17] 1
x[18] 0
x[19] 1
x[20] 1
x[21] 0
x[22] 0
x[23] 1
x[24] 0
x[25] 1
x[26] 5.6906434887479617e-08
x[27] 0
x[28] 1
x[29] 0
x[30] 0
x[31] 1
x[32] 0
x[33] 0
x[34] 0
x[35] 1
x[36] 0
x[37] 1
x[38] 1.5968962007013066e-08
x[39] 0
x[40] 1
x[41] 1
x[42] 1
x[43] 1
x[44] 0
x[45] 5.3818101091465213e-08
x[46] 1
x[47] 1
x[48] 1
x[49] 0
x[50] 0
x[51] 1
x[52] 1
x[53] 0
x[54] 9.9999998380726574e-01
x[55] 8.6153632600855428e-08
x[56] 0
x[57] 0
x[58] 1
x[59] 1
x[60] 0
x[61] 1
x[62] 3.2306918907814251e-08
x[63] 1
x[64] 0
x[65] 1
x[66] 0
x[67] 0
x[68] 0
x[69] 1
x[70] 0
x[71] 1
x[72] 1
x[73] 0
x[74] 1
x[75] 1
x[76] 1
x[77] 0
x[78] 1
x[79] 1
x[80] 0
x[81] 0
x[82] 5.0529955436381712e-08
x[83] 0
x[84] 0
x[85] 9.9999996761452792e-01
x[86] 1
x[87] 3.23398792036516e-08
x[88] 5.37474813063625e-08
x[89] 0
x[90] 9.9999993641005258e-01
x[91] 1
x[92] 1
x[93] 9.9999996449720729e-01
x[94] 1
x[95] 0
x[96] 9.9999991707310054e-01
x[97] 1
x[98] 1
x[99] 0
x[100] 0
x[101] 1
x[102] 1
x[103] 5.3825210538040610e-08
x[104] 0
x[105] 1
x[106] 0
x[107] 0
x[108] 5.3746382838650133e-08
x[109] 0
x[110] 8.2987087960781768e-08
x[111] 0
x[112] 0
x[113] 0
x[114] 0
x[115] 0
x[116] 1
x[117] 1
x[118] 1
x[119] 0
x[120] 1
x[121] 1
x[122] 1
x[123] 0
x[124] 1
x[125] 1
x[126] 0
x[127] 1
x[128] 1
x[129] 1
x[130] 0
x[131] 1.6131878492525041e-08
x[132] 1
x[133] 0
x[134] 0
x[135] 0
x[136] 1
x[137] 0
x[138] 1
x[139] 0
x[140] 1
x[141] 8.6172383380863334e-08
x[142] 0
x[143] 0
x[144] 9.9999994612523457e-01
x[145] 1
x[146] 1
x[147] 9.9999993014851307e-01
x[148] -9.7420843041758568e-09
x[149] 5.38345158946115e-08
x[150] 0
x[151] 0
x[152] 1
x[153] 1
x[154] 9.9999996761452792e-01
x[155] 0
x[156] 0
x[157] -9.7420843041758568e-09
x[158] 1
x[159] 0
x[160] 1
x[161] 5.3812229328844272e-08
x[162] 0
x[163] 1
x[164] 1
x[165] 0
x[166] 8.9434548722027859e-08
x[167] 1.2994161490713166e-08
x[168] 0
x[169] 0
x[170] 0
x[171] 6.9995008274529521e-08
x[172] 1
x[173] 0
x[174] 0
x[175] 0
x[176] 1
x[177] 6.6786486488219735e-08
x[178] 7.3131487578715556e-08
x[179] 8.6221675094576471e-08
x[180] 1
x[181] 0
x[182] 1
x[183] 1
x[184] 1
x[185] 0
x[186] 1
x[187] 1.0000000128239936e+00
x[188] 1
x[189] 0
x[190] 1
x[191] 1.2907404605374878e-08
x[192] 0
x[193] 1
x[194] 0
x[195] 9.9999993326583370e-01
x[196] 9.9999993014851329e-01
x[197] 1
x[198] 0
x[199] 0
x[200] 0
x[201] 0
x[202] 1
x[203] 1
x[204] 1
x[205] 0
x[206] 1
x[207] 0
x[208] 8.2957263459048984e-08
x[209] 0
x[210] 1.2879233859213341e-08
x[211] 1
x[212] 7.3075393198471487e-08
x[213] 0
x[214] 9.9999993326583392e-01
x[215] 0
x[216] 1
x[217] 0
x[218] 9.9999994945856774e-01
x[219] 0
x[220] 0
x[221] 0
x[222] 5.3665218955717791e-08
x[223] 1
x[224] 1
x[225] 0
x[226] 0
x[227] 1
x[228] 5.3833870826522775e-08
x[229] 5.3737540040158037e-08
x[230] 1
x[231] 1.0000000345090503e+00
x[232] 1
x[233] 0
x[234] 0
x[235] 9.9999991707309588e-01
x[236] 1
x[237] 9.9999989963920222e-01
x[238] 0
x[239] 1
x[240] 1
x[241] 1
x[242] 1.0000000700205727e+00
x[243] 0
x[244] 0
x[245] 1
x[246] 0
x[247] 0
x[248] 1
x[249] 1
x[250] 0
x[251] 0
x[252] 1
x[253] 1
x[254] 0
x[255] 0
x[256] 0
x[257] 3.23161366758699e-08
x[258] 1
x[259] 0
x[260] 1
x[261] 1
x[262] 9.9999998692458214e-01
x[263] 0
x[264] 1.0000000130286140e+00
x[265] 0
x[266] 1.6126971562881409e-08
x[267] 0
x[268] 1
x[269] 1
x[270] 0
x[271] 0
x[272] 5.3739907400091047e-08
x[273] 0
x[274] 0
x[275] 1
x[276] 1
x[277] 0
x[278] 0
x[279] 1.6073747135173896e-08
x[280] 1
x[281] 0
x[282] 0.999999949458568
x[283] 0
x[284] 1
x[285] 1
x[286] 0
x[287] 0
x[288] 0
x[289] -2.6150836247137679e-08
x[290] 0
x[291] 0
x[292] 0
x[293] 0
x[294] 1
x[295] 7.0030335138639769e-08
x[296] 1
x[297] 0
x[298] 0
x[299] 0
x[300] 1
x[301] 1
x[302] 1
x[303] 1
x[304] 1
x[305] 0
x[306] 1
x[307] 1
x[308] 0
x[309] 0
x[310] 1
x[311] 0
x[312] 1
x[313] 0
x[314] 1
x[315] 9.9999994939408876e-01
x[316] 1
x[317] 0
x[318] 0
x[319] 9.9999993483148075e-01
x[320] 5.3809418505246931e-08
x[321] 6.99837396146128e-08
x[322] 9.9999994945856774e-01
x[323] 1
x[324] 0
x[325] 1
x[326] 1
x[327] 7.0856879205380855e-08
x[328] 1
x[329] 1
x[330] 9.9999994612523491e-01
x[331] 0
x[332] 9.9999991707309588e-01
x[333] 9.9999992031302254e-01
x[334] 1
x[335] 0
x[336] 5.3763485834690680e-08
x[337] 9.9999991373976227e-01
x[338] 1
x[339] 0
x[340] 0
x[341] 1
x[342] 0
x[343] 1
x[344] 1
x[345] 0
x[346] 0
x[347] 1
x[348] 1
x[349] 5.3799086053921110e-08
x[350] 1
x[351] 1
x[352] 0.999999970161081
x[353] 0
x[354] 0
x[355] 0
x[356] 5.6715480982459278e-08
x[357] 0
x[358] 1.0000000130430888e+00
x[359] 0
x[360] 0
x[361] 1
x[362] 7.3104205403760323e-08
x[363] 0
x[364] 0
x[365] 1
x[366] 1
x[367] 1
x[368] 1
x[369] 1
x[370] 1
x[371] 1
x[372] 0
x[373] 7.0030689734647660e-08
x[374] 1
x[375] 6.9966274002323511e-08
x[376] 0
x[377] -9.7420838600866469e-09
x[378] 1
x[379] 0
x[380] 0
x[381] 0
x[382] 1
x[383] 1
x[384] 1
x[385] 1
x[386] 0
x[387] 0
x[388] 9.9999993217789152e-01
x[389] 0
x[390] 9.9999995272742215e-01
x[391] 1
x[392] 0
x[393] 0
x[394] 1
x[395] 1
x[396] 0
x[397] 0
x[398] 0
x[399] 0
x[400] 1.0000000129840454e+00
x[401] 3.2268885053261560e-08
x[402] 0
x[403] 1
x[404] 7.0006882234003157e-08
x[405] 8.6227362125472722e-08
x[406] 1
x[407] 0
x[408] 1
x[409] 1
x[410] 9.9999994612523457e-01
x[411] 1
x[412] 0
x[413] 1
x[414] 9.9999994945856774e-01
x[415] -9.7420843041758568e-09
x[416] 7.0017469905169852e-08
x[417] 1
x[418] 9.9999998730919815e-01
x[419] 1
x[420] 1.0000000129988855e+00
x[421] -1.3075417193419980e-08
x[422] 1.2949908653227836e-08
x[423] 0
x[424] 9.9999984388827590e-01
x[425] 1
x[426] 0
x[427] 1
x[428] 9.9999993326583381e-01
x[429] 0
x[430] 0
x[431] 0
x[432] 0
x[433] 0
x[434] 1.0000000130227626e+00
x[435] 5.3805201292702213e-08
x[436] 1
x[437] 0
x[438] 0
x[439] 1
x[440] 1
x[441] 1
x[442] 9.9999999025791608e-01
x[443] 0
x[444] 0
x[445] 0
x[446] 0
x[447] 0
x[448] 0
x[449] 0
x[450] 0
x[451] 1
x[452] 0
x[453] 0
x[454] 0
x[455] 0
x[456] 1
x[457] 3.2349346145504787e-08
x[458] 1
x[459] 5.3720657426538153e-08
x[460] 1
x[461] 0
x[462] 9.9999991711165825e-01
x[463] 0
x[464] 0
x[465] 7.0025890681144025e-08
x[466] 1
x[467] 0
x[468] 0
x[469] 0
x[470] 1
x[471] 0
x[472] 0
x[473] 5.3809811831613943e-08
x[474] 0
x[475] -9.7420838600866469e-09
x[476] 1
x[477] 1
x[478] 0
x[479] 1
x[480] 0
x[481] 1
x[482] 1
x[483] 0
x[484] 0
x[485] 7.00270348784797e-08
x[486] 0
x[487] 0
x[488] 9.9999993326583381e-01
x[489] 0
x[490] 0
x[491] 1
x[492] 0
x[493] 1
x[494] 1.5624013276591676e-07
x[495] 0
x[496] 0
x[497] 0
x[498] 1
x[499] 0
x[500] 0
x[501] 3.2327038404384945e-08
x[502] 1.2992106865119391e-08
x[503] 0
x[504] 1
x[505] 0
x[506] 1
x[507] 1
x[508] 0
x[509] 1
x[510] 1
x[511] 0
x[512] 1
x[513] 9.9999994300791784e-01
x[514] 1
x[515] 8.6219690302046815e-08
x[516] 1.0000000130390165e+00
x[517] 1
x[518] 0
x[519] 1.9244753852147897e-08
x[520] 1
x[521] 1
x[522] 1
x[523] 9.9999994945856829e-01
x[524] 0
x[525] 0
x[526] 5.3661461003246232e-08
x[527] 0
x[528] 0
x[529] 0
x[530] 3.2235200320862355e-08
x[531] 1
x[532] 1
x[533] 7.31291237187429e-08
x[534] 0
x[535] 1
x[536] 1
x[537] 5.3734342761196971e-08
x[538] 0
x[539] 9.9999993326583470e-01
x[540] 1
x[541] 0
x[542] 1
x[543] 1
x[544] 0
x[545] 6.9980730768952348e-08
x[546] 0
x[547] 1
x[548] 0
x[549] 5.37221490229438e-08
x[550] 1
x[551] 0
x[552] 0
x[553] 1
x[554] 0
x[555] 1
x[556] 9.9999985674768044e-01
x[557] 0
x[558] 0
x[559] 0
x[560] 0
x[561] 0
x[562] 0
x[563] 0.999999949458568
x[564] 8.61494117906843e-08
x[565] 1
x[566] 0
x[567] 8.3088531865837082e-08
x[568] 1
x[569] 1
x[570] 1
x[571] 1
x[572] 0
x[573] 0
x[574] 0
x[575] 1
x[576] 9.9116156501048254e-08
x[577] 0
x[578] 0.999999949458568
x[579] 1
x[580] 9.9999996253398526e-01
x[581] 0
x[582] 5.3832380344563709e-08
x[583] 0
x[584] 0
x[585] 1
x[586] 0
x[587] 0
x[588] 1
x[589] 9.9999991707309588e-01
x[590] 0
x[591] 0
x[592] 9.9999993330264358e-01
x[593] 1
x[594] 0
x[595] 1.0000000130168221e+00
x[596] 8.6185757020795579e-08
x[597] 0
x[598] 1
x[599] 0
x[600] 1
x[601] 0
x[602] 0
x[603] 0
x[604] 0
x[605] 0
x[606] 1
x[607] 1
x[608] 1
x[609] 1
x[610] 0
x[611] 1
x[612] 1
x[613] 9.9999996761452792e-01
x[614] 3.2333396934027886e-08
x[615] 9.9999998714059912e-01
x[616] 1
x[617] 1
x[618] 0
x[619] 1
x[620] 0
x[621] 1
x[622] 0
x[623] 9.9999993330629855e-01
x[624] 0
x[625] 2.8394507126589887e-08
x[626] 1
x[627] 0
x[628] 1
x[629] 0
x[630] 0
x[631] 0
x[632] 1
x[633] 0
x[634] 5.3807232563415275e-08
x[635] 1
x[636] 0
x[637] 1
x[638] 0
x[639] 0
x[640] 0
x[641] 1
x[642] 0
x[643] 0
x[644] 2.8436294376363250e-08
x[645] 1
x[646] 0
x[647] 1
x[648] 0
x[649] 9.9999994612523457e-01
x[650] 0
x[651] 0
x[652] 1
x[653] 1
x[654] 0
x[655] 1.2439030588795163e-08
x[656] 9.9999998769669340e-01
x[657] 9.9999994950812277e-01
x[658] 1.9273588843490313e-08
x[659] 1
x[660] 0
x[661] 9.9999998559437586e-01
x[662] 0
x[663] 0
x[664] 9.9999999025791619e-01
x[665] 0
x[666] 1
x[667] 0
x[668] 0
x[669] 0
x[670] 0.999999949458568
x[671] 9.9999993326583381e-01
x[672] 7.31463701330205e-08
x[673] 1.4315748595358482e-07
x[674] 9.9999996761452792e-01
x[675] 1
x[676] 1
x[677] 1
x[678] 1
x[679] 1
x[680] 1
x[681] 9.9999992681517957e-01
x[682] 0
x[683] 1
x[684] 9.9999994952352145e-01
x[685] 0
x[686] 1
x[687] 0
x[688] 0
x[689] 0
x[690] 0
x[691] 9.9999994612523446e-01
x[692] 1
x[693] 0
x[694] 9.9999997102641436e-01
x[695] 5.3682620097625791e-08
x[696] 1
x[697] 1
x[698] 9.9999994612523457e-01
x[699] 0
x[700] 1
x[701] 1
x[702] 1
x[703] 0
x[704] 1
x[705] 9.9999993326583392e-01
x[706] 1
x[707] 8.2897905226104452e-08
x[708] 0
x[709] 1
x[710] 1
x[711] 0
x[712] 0
x[713] 1
x[714] 1
x[715] 1
x[716] 8.2920272393829383e-08
x[717] -9.7420843235130283e-09
x[718] 1
x[719] 9.9999993331586345e-01
x[720] 0
x[721] 1
x[722] 1
x[723] 1
x[724] 1
x[725] 1
x[726] 1
x[727] 0
x[728] 1
x[729] 1
x[730] 0
x[731] 1
x[732] 1
x[733] 0
x[734] 0
x[735] 1
x[736] 1
x[737] 0
x[738] 1
x[739] 9.9999991716094994e-01
x[740] 0
x[741] 6.9841808431439265e-08
x[742] 0
x[743] 0
x[744] 0
x[745] 1
x[746] 1
x[747] 7.3125649451568947e-08
x[748] 0
x[749] 4.0622968530864826e-08
x[750] 0
x[751] 0
x[752] 0
x[753] 1.2992193638150081e-08
x[754] 1
x[755] 1
x[756] 1
x[757] 1
x[758] 1
x[759] 1
x[760] 1
x[761] 1
x[762] 9.9999994612523457e-01
x[763] 1
x[764] 7.00336323587114e-08
x[765] 0
x[766] 1
x[767] 1
x[768] 0
x[769] 1
x[770] 0
x[771] 9.9999996761452792e-01
x[772] 0
x[773] 1
x[774] 1
x[775] 0
x[776] 1
x[777] 0
x[778] 1
x[779] 5.3759065631314536e-08
x[780] 0
x[781] 1
x[782] 0
x[783] 4.0755833470226622e-08
x[784] 0
x[785] 1
x[786] 1
x[787] 0
x[788] 0
x[789] 0.999999920190416
x[790] 0
x[791] 1
x[792] 0
x[793] 1.5934617180240444e-07
x[794] 0
x[795] 0
x[796] 0
x[797] 1
x[798] 1
x[799] 1
x[800] 0
x[801] 1
x[802] -9.7420845158092968e-09
x[803] 1
x[804] 0
x[805] 7.0035239530397630e-08
x[806] 5.67828912467132e-08
x[807] 9.9999992034624541e-01
x[808] 0
x[809] 1
x[810] 0.999999980689945
x[811] 1
x[812] 1
x[813] 1
x[814] 0
x[815] 0
x[816] 0
x[817] 1
x[818] 0
x[819] 1
x[820] 1
x[821] 1
x[822] 0
x[823] 1
x[824] 0
x[825] 1
x[826] -9.7097554704819841e-09
x[827] 0
x[828] 0
x[829] 1
x[830] 1
x[831] 1
x[832] 0
x[833] 1
x[834] 1
x[835] 1
x[836] 0
x[837] 1.3041816596376831e-08
x[838] 0
x[839] 8.6184533035055081e-08
x[840] -1.3075417637509190e-08
x[841] 3.2337738207865919e-08
x[842] 0
x[843] 9.9999991373976249e-01
x[844] 1
x[845] 0
x[846] 0
x[847] -1.3075417637509190e-08
x[848] 1
x[849] 0
x[850] 1
x[851] 1
x[852] 1
x[853] 0
x[854] 0
x[855] 0
x[856] 1.6063046864180131e-08
x[857] 8.6216299492364591e-08
x[858] 0
x[859] 1
x[860] 1
x[861] 0
x[862] 9.9999998692458214e-01
x[863] 0
x[864] 1
x[865] 1
x[866] 9.9999997150395881e-01
x[867] 0
x[868] 5.0569210731043460e-08
x[869] 9.9999995920065210e-01
x[870] 1
x[871] 0
x[872] 9.9999998718220773e-01
x[873] 0
x[874] 0
x[875] 0
x[876] 1
x[877] 0
x[878] 1
x[879] 0
x[880] 5.3780151832022194e-08
x[881] 1
x[882] 5.3826191332561592e-08
x[883] 0
x[884] 0.999999917113643
x[885] 0
x[886] 1
x[887] 1
x[888] 1
x[889] 1
x[890] 1.0000000129965450e+00
x[891] 0
x[892] 1
x[893] 1
x[894] 0
x[895] -9.7056832086589111e-09
x[896] 0
x[897] 1
x[898] 1
x[899] 1
x[900] 0
x[901] 1
x[902] 1
x[903] 1
x[904] 0
x[905] 0
x[906] 0
x[907] 0
x[908] 0
x[909] 0
x[910] 0
x[911] 0
x[912] 1
x[913] 1
x[914] 1
x[915] 1
x[916] 0
x[917] 0
x[918] 1
x[919] 0
x[920] 1
x[921] 0
x[922] 1
x[923] 9.9999994612523457e-01
x[924] 0
x[925] 5.3727462441642996e-08
x[926] 7.0015807154683249e-08
x[927] 0
x[928] 3.5406413353120441e-08
x[929] 1
x[930] 8.2950445730989749e-08
x[931] 0
x[932] 0
x[933] 1
x[934] 0
x[935] 9.9999994300791750e-01
x[936] 1.0000000259250463e+00
x[937] 0
x[938] 0
x[939] 1
x[940] 0
x[941] 1
x[942] 0
x[943] 9.9999996761452792e-01
x[944] 0
x[945] 1
x[946] 0
x[947] 0
x[948] 1
x[949] 1.6134587832494410e-08
x[950] 6.9774244048404517e-08
x[951] 0
x[952] 0
x[953] 1
x[954] 1
x[955] 0
x[956] 1
x[957] 9.9999996231797250e-01
x[958] 9.9999997099993643e-01
x[959] 1
x[960] 1
x[961] 1
x[962] 0
x[963] 1
x[964] 0
x[965] 1.0000000130299935e+00
x[966] 0
x[967] 6.9918553771337185e-08
x[968] 5.3832129535082611e-08
x[969] 0
x[970] 3.4669561615980750e-08
x[971] 1
x[972] 9.9999994612523480e-01
x[973] 0
x[974] 0
x[975] 1
x[976] 1
x[977] 0
x[978] 1
x[979] 5.3750481412129584e-08
x[980] 1
x[981] 0
x[982] 1
x[983] 0
x[984] 1
x[985] 0
x[986] 0
x[987] 0.999999967614528
x[988] 0
x[989] 0
x[990] 0
x[991] 1
x[992] 1
x[993] 0
x[994] 0.999999919236526
x[995] 0
x[996] 1
x[997] 0
x[998] 9.9999994950120374e-01
x[999] 1
